NAME: tsp_445
COMMENT: Random TSP instance
TYPE: TSP
DIMENSION: 50
EDGE_WEIGHT_TYPE: EUC_2D
NODE_COORD_SECTION
1 610 742
2 843 808
3 931 217
4 190 721
5 592 699
6 959 429
7 894 247
8 606 104
9 36 765
10 49 465
11 167 404
12 985 170
13 448 626
14 9 572
15 452 382
16 315 459
17 519 134
18 994 406
19 295 235
20 976 878
21 148 511
22 480 192
23 93 23
24 740 503
25 353 583
26 937 151
27 395 954
28 600 40
29 868 296
30 260 541
31 358 2
32 701 6
33 437 418
34 517 85
35 204 726
36 799 250
37 274 591
38 747 473
39 365 309
40 387 493
41 865 525
42 459 223
43 249 267
44 308 801
45 76 557
46 782 517
47 119 736
48 22 687
49 473 637
50 731 854
